s td 23 8 30
b 1 10 22
b 2 23 27
b 3 3 8 29
b 4 4 13 26
b 5 10 12 18
b 6 11 13 18
b 7 6 8 15
b 8 1 14 21
b 9 1 14 19 29
b 10 17 26 30
b 11 7 12 23 24
b 12 1 8 9 13 17 23 25 29
b 13 8 9 13 17 23 24 25 29
b 14 8 9 13 18 23 24 29
b 15 9 12 18 23 24 29
b 16 2 9 12 29
b 17 5 13 17 24 25 29
b 18 5 13 17 24 26
b 19 1 6 8 9 17 23 25
b 20 1 6 8 9 20 23
b 21 1 6 16 20 23
b 22 1 9 13 14 17 29
b 23 9 14 17 28
1 5
2 12
3 12
4 18
5 15
6 14
7 19
8 22
9 22
10 18
11 15
12 13
12 19
12 22
13 14
13 17
14 15
15 16
17 18
19 20
20 21
22 23
